* Problem:    stein9inf-prescaled
* Class:      LP
* Rows:       14
* Columns:    23
* Non-zeros:  68
* Format:     Free MPS
*
NAME stein9inf-prescaled
ROWS
 N R0000000
 E R0000001
 E R0000002
 E R0000003
 E R0000004
 E R0000005
 E R0000006
 E R0000007
 E R0000008
 E R0000009
 E R0000010
 E R0000011
 E R0000012
 E R0000013
 E R0000014
COLUMNS
 c0 R0000000 1.2247448714 R0000014 1.2247448714
 c0 R0000013 -1.224744871 R0000010 -1.224744871
 c0 R0000007 -1.224744871 R0000003 -1.224744871
 c0 R0000002 -1.224744871
 c1 R0000000 1.177591843 R0000014 1.177591843
 c1 R0000013 -1.177591843 R0000011 -1.177591843
 c1 R0000008 -1.177591843 R0000003 -1.177591843
 c1 R0000001 -1.177591843
 c2 R0000000 1.4422495703 R0000014 1.4422495703
 c2 R0000013 -1.44224957 R0000012 -1.44224957
 c2 R0000009 -1.44224957 R0000002 -1.44224957
 c2 R0000001 -1.44224957
 c3 R0000000 1 R0000014 1
 c3 R0000013 -1 R0000010 -1
 c3 R0000006 -1 R0000005 -1
 c3 R0000001 -1
 c4 R0000000 1 R0000014 1
 c4 R0000013 -1 R0000011 -1
 c4 R0000006 -1 R0000004 -1
 c4 R0000002 -1
 c5 R0000000 1.177591843 R0000014 1.177591843
 c5 R0000013 -1.177591843 R0000012 -1.177591843
 c5 R0000005 -1.177591843 R0000004 -1.177591843
 c5 R0000003 -1.177591843
 c6 R0000000 1.177591843 R0000014 1.177591843
 c6 R0000013 -1.177591843 R0000010 -1.177591843
 c6 R0000009 -1.177591843 R0000008 -1.177591843
 c6 R0000004 -1.177591843
 c7 R0000000 1 R0000014 1
 c7 R0000013 -1 R0000011 -1
 c7 R0000009 -1 R0000007 -1
 c7 R0000005 -1
 c8 R0000000 1 R0000014 1
 c8 R0000013 -1 R0000012 -1
 c8 R0000008 -1 R0000007 -1
 c8 R0000006 -1
 c9 R0000001 2.1633743555
 c10 R0000002 2.1633743555
 c11 R0000003 2.1633743555
 c12 R0000004 2.080083823
 c13 R0000005 2.080083823
 c14 R0000006 2.5475719943
 c15 R0000007 2.080083823
 c16 R0000008 2.5475719943
 c17 R0000009 2.5475719943
 c18 R0000010 2.5475719943
 c19 R0000011 2.5475719943
 c20 R0000012 2.1633743555
 c21 R0000013 2.1633743555
 c22 R0000014 2.1633743555
RHS
 RHS1 R0000001 -1 R0000002 -1
 RHS1 R0000003 -1 R0000004 -1
 RHS1 R0000005 -1 R0000006 -1
 RHS1 R0000007 -1 R0000008 -1
 RHS1 R0000009 -1 R0000010 -1
 RHS1 R0000011 -1 R0000012 -1
 RHS1 R0000013 -4 R0000014 4.5
BOUNDS
 UP BND1 c0 0.8164965809
 UP BND1 c1 0.8491906648
 UP BND1 c2 0.6933612744
 UP BND1 c3 1
 UP BND1 c4 1
 UP BND1 c5 0.8491906648
 UP BND1 c6 0.8491906648
 UP BND1 c7 1
 UP BND1 c8 1
ENDATA
